;; translated from ./ctigar/bkley.c.vmt
;; original benchmark available at: https://es-static.fbk.eu/people/griggio/ic3ia/index.html
;; author: Alberto Griggio <griggio@fbk.eu>
(set-logic HORN)
(declare-fun state (Bool Bool Bool Bool Bool Bool Int Int Int Int) Bool)
(assert (forall ((|.s.1| Bool) (|.s.0| Bool) (|.s.2| Bool) (|.s.3.next| Bool) (|.s.1.next| Bool) (|.s.0.next| Bool) (|.s.2.next| Bool) (|.s.4.next| Bool) (|.s.5.next| Bool) (|main.unowned.next| Int) (|main.unowned| Int) (|main.exclusive.next| Int) (|main.exclusive| Int) (|main.invalid.next| Int) (|main.invalid| Int) (|main.nonexclusive.next| Int) (|main.nonexclusive| Int) (|.inputVar.0| Int) (|.s.4| Bool) (|.s.5| Bool) (|.s.3| Bool)) (=> (let ((.def_23 (not .s.5)))
(let ((.def_20 (not .s.4)))
(let ((.def_17 (not .s.3)))
(let ((.def_14 (not .s.2)))
(let ((.def_10 (not .s.1)))
(let ((.def_12 (and .def_10 .s.0)))
(let ((.def_15 (and .def_12 .def_14)))
(let ((.def_18 (and .def_15 .def_17)))
(let ((.def_21 (and .def_18 .def_20)))
(let ((.def_24 (and .def_21 .def_23)))
.def_24)))))))))) (state |.s.1| |.s.0| |.s.2| |.s.3| |.s.4| |.s.5| |main.unowned| |main.exclusive| |main.invalid| |main.nonexclusive|))))
(assert (forall ((|.s.1| Bool) (|.s.0| Bool) (|.s.2| Bool) (|.s.3.next| Bool) (|.s.1.next| Bool) (|.s.0.next| Bool) (|.s.2.next| Bool) (|.s.4.next| Bool) (|.s.5.next| Bool) (|main.unowned.next| Int) (|main.unowned| Int) (|main.exclusive.next| Int) (|main.exclusive| Int) (|main.invalid.next| Int) (|main.invalid| Int) (|main.nonexclusive.next| Int) (|main.nonexclusive| Int) (|.inputVar.0| Int) (|.s.4| Bool) (|.s.5| Bool) (|.s.3| Bool)) (=> (and (state |.s.1| |.s.0| |.s.2| |.s.3| |.s.4| |.s.5| |main.unowned| |main.exclusive| |main.invalid| |main.nonexclusive|) (let ((.def_25 (not .s.0)))
(let ((.def_10 (not .s.1)))
(let ((.def_78 (and .def_10 .def_25)))
(let ((.def_14 (not .s.2)))
(let ((.def_79 (and .def_14 .def_78)))
(let ((.def_17 (not .s.3)))
(let ((.def_213 (and .def_17 .def_79)))
(let ((.def_20 (not .s.4)))
(let ((.def_214 (and .def_20 .def_213)))
(let ((.def_23 (not .s.5)))
(let ((.def_616 (and .def_23 .def_214)))
(let ((.def_617 (not .def_616)))
(let ((.def_101 (not .s.3.next)))
(let ((.def_67 (not .s.1.next)))
(let ((.def_33 (not .s.0.next)))
(let ((.def_84 (and .def_33 .def_67)))
(let ((.def_37 (not .s.2.next)))
(let ((.def_85 (and .def_37 .def_84)))
(let ((.def_102 (and .def_85 .def_101)))
(let ((.def_42 (not .s.4.next)))
(let ((.def_103 (and .def_42 .def_102)))
(let ((.def_100 (not .s.5.next)))
(let ((.def_104 (and .def_100 .def_103)))
(let ((.def_48 (= main.unowned main.unowned.next)))
(let ((.def_105 (and .def_48 .def_104)))
(let ((.def_52 (= main.exclusive main.exclusive.next)))
(let ((.def_106 (and .def_52 .def_105)))
(let ((.def_56 (= main.invalid main.invalid.next)))
(let ((.def_107 (and .def_56 .def_106)))
(let ((.def_60 (= main.nonexclusive main.nonexclusive.next)))
(let ((.def_108 (and .def_60 .def_107)))
(let ((.def_618 (or .def_108 .def_617)))
(let ((.def_35 (and .def_33 .s.1.next)))
(let ((.def_38 (and .def_35 .def_37)))
(let ((.def_205 (and .def_38 .def_101)))
(let ((.def_206 (and .def_42 .def_205)))
(let ((.def_610 (and .def_100 .def_206)))
(let ((.def_611 (and .def_48 .def_610)))
(let ((.def_612 (and .def_52 .def_611)))
(let ((.def_613 (and .def_56 .def_612)))
(let ((.def_614 (and .def_60 .def_613)))
(let ((.def_598 (= main.exclusive 0)))
(let ((.def_607 (not .def_598)))
(let ((.def_12 (and .def_10 .s.0)))
(let ((.def_15 (and .def_12 .def_14)))
(let ((.def_18 (and .def_15 .def_17)))
(let ((.def_21 (and .def_18 .def_20)))
(let ((.def_24 (and .def_21 .def_23)))
(let ((.def_608 (and .def_24 .def_607)))
(let ((.def_609 (not .def_608)))
(let ((.def_615 (or .def_609 .def_614)))
(let ((.def_619 (and .def_615 .def_618)))
(let ((.def_115 (and .s.0.next .s.1.next)))
(let ((.def_188 (and .def_37 .def_115)))
(let ((.def_189 (and .def_101 .def_188)))
(let ((.def_190 (and .def_42 .def_189)))
(let ((.def_601 (and .def_100 .def_190)))
(let ((.def_602 (and .def_48 .def_601)))
(let ((.def_603 (and .def_52 .def_602)))
(let ((.def_604 (and .def_56 .def_603)))
(let ((.def_605 (and .def_60 .def_604)))
(let ((.def_599 (and .def_24 .def_598)))
(let ((.def_600 (not .def_599)))
(let ((.def_606 (or .def_600 .def_605)))
(let ((.def_620 (and .def_606 .def_619)))
(let ((.def_26 (and .s.1 .def_25)))
(let ((.def_27 (and .def_14 .def_26)))
(let ((.def_184 (and .def_17 .def_27)))
(let ((.def_185 (and .def_20 .def_184)))
(let ((.def_595 (and .def_23 .def_185)))
(let ((.def_596 (not .def_595)))
(let ((.def_597 (or .def_108 .def_596)))
(let ((.def_621 (and .def_597 .def_620)))
(let ((.def_68 (and .s.0.next .def_67)))
(let ((.def_154 (and .s.2.next .def_68)))
(let ((.def_155 (and .def_101 .def_154)))
(let ((.def_156 (and .def_42 .def_155)))
(let ((.def_589 (and .def_100 .def_156)))
(let ((.def_590 (and .def_48 .def_589)))
(let ((.def_591 (and .def_52 .def_590)))
(let ((.def_592 (and .def_56 .def_591)))
(let ((.def_593 (and .def_60 .def_592)))
(let ((.def_577 (= main.nonexclusive 0)))
(let ((.def_94 (and .s.1 .s.0)))
(let ((.def_163 (and .def_14 .def_94)))
(let ((.def_164 (and .def_17 .def_163)))
(let ((.def_165 (and .def_20 .def_164)))
(let ((.def_576 (and .def_23 .def_165)))
(let ((.def_587 (and .def_576 .def_577)))
(let ((.def_588 (not .def_587)))
(let ((.def_594 (or .def_588 .def_593)))
(let ((.def_622 (and .def_594 .def_621)))
(let ((.def_175 (and .s.2.next .def_84)))
(let ((.def_176 (and .def_101 .def_175)))
(let ((.def_177 (and .def_42 .def_176)))
(let ((.def_581 (and .def_100 .def_177)))
(let ((.def_582 (and .def_48 .def_581)))
(let ((.def_583 (and .def_52 .def_582)))
(let ((.def_584 (and .def_56 .def_583)))
(let ((.def_585 (and .def_60 .def_584)))
(let ((.def_578 (not .def_577)))
(let ((.def_579 (and .def_576 .def_578)))
(let ((.def_580 (not .def_579)))
(let ((.def_586 (or .def_580 .def_585)))
(let ((.def_623 (and .def_586 .def_622)))
(let ((.def_149 (and .s.2 .def_78)))
(let ((.def_150 (and .def_17 .def_149)))
(let ((.def_151 (and .def_20 .def_150)))
(let ((.def_573 (and .def_23 .def_151)))
(let ((.def_574 (not .def_573)))
(let ((.def_575 (or .def_108 .def_574)))
(let ((.def_624 (and .def_575 .def_623)))
(let ((.def_140 (and .def_35 .s.2.next)))
(let ((.def_141 (and .def_101 .def_140)))
(let ((.def_142 (and .def_42 .def_141)))
(let ((.def_567 (and .def_100 .def_142)))
(let ((.def_568 (and .def_48 .def_567)))
(let ((.def_569 (and .def_52 .def_568)))
(let ((.def_570 (and .def_56 .def_569)))
(let ((.def_571 (and .def_60 .def_570)))
(let ((.def_555 (= main.unowned 0)))
(let ((.def_564 (not .def_555)))
(let ((.def_125 (and .def_12 .s.2)))
(let ((.def_126 (and .def_17 .def_125)))
(let ((.def_127 (and .def_20 .def_126)))
(let ((.def_554 (and .def_23 .def_127)))
(let ((.def_565 (and .def_554 .def_564)))
(let ((.def_566 (not .def_565)))
(let ((.def_572 (or .def_566 .def_571)))
(let ((.def_625 (and .def_572 .def_624)))
(let ((.def_116 (and .s.2.next .def_115)))
(let ((.def_117 (and .def_101 .def_116)))
(let ((.def_118 (and .def_42 .def_117)))
(let ((.def_558 (and .def_100 .def_118)))
(let ((.def_559 (and .def_48 .def_558)))
(let ((.def_560 (and .def_52 .def_559)))
(let ((.def_561 (and .def_56 .def_560)))
(let ((.def_562 (and .def_60 .def_561)))
(let ((.def_556 (and .def_554 .def_555)))
(let ((.def_557 (not .def_556)))
(let ((.def_563 (or .def_557 .def_562)))
(let ((.def_626 (and .def_563 .def_625)))
(let ((.def_110 (and .s.2 .def_26)))
(let ((.def_111 (and .def_17 .def_110)))
(let ((.def_112 (and .def_20 .def_111)))
(let ((.def_551 (and .def_23 .def_112)))
(let ((.def_552 (not .def_551)))
(let ((.def_553 (or .def_108 .def_552)))
(let ((.def_627 (and .def_553 .def_626)))
(let ((.def_95 (and .s.2 .def_94)))
(let ((.def_96 (and .def_17 .def_95)))
(let ((.def_97 (and .def_20 .def_96)))
(let ((.def_539 (and .def_23 .def_97)))
(let ((.def_291 (<= 1 main.invalid)))
(let ((.def_548 (and .def_291 .def_539)))
(let ((.def_549 (not .def_548)))
(let ((.def_69 (and .def_37 .def_68)))
(let ((.def_70 (and .s.3.next .def_69)))
(let ((.def_71 (and .def_42 .def_70)))
(let ((.def_421 (and .def_71 .def_100)))
(let ((.def_422 (and .def_48 .def_421)))
(let ((.def_423 (and .def_52 .def_422)))
(let ((.def_424 (and .def_56 .def_423)))
(let ((.def_425 (and .def_60 .def_424)))
(let ((.def_550 (or .def_425 .def_549)))
(let ((.def_628 (and .def_550 .def_627)))
(let ((.def_86 (and .s.3.next .def_85)))
(let ((.def_87 (and .def_42 .def_86)))
(let ((.def_542 (and .def_87 .def_100)))
(let ((.def_543 (and .def_48 .def_542)))
(let ((.def_544 (and .def_52 .def_543)))
(let ((.def_545 (and .def_56 .def_544)))
(let ((.def_546 (and .def_60 .def_545)))
(let ((.def_292 (not .def_291)))
(let ((.def_540 (and .def_292 .def_539)))
(let ((.def_541 (not .def_540)))
(let ((.def_547 (or .def_541 .def_546)))
(let ((.def_629 (and .def_547 .def_628)))
(let ((.def_80 (and .s.3 .def_79)))
(let ((.def_81 (and .def_20 .def_80)))
(let ((.def_536 (and .def_23 .def_81)))
(let ((.def_537 (not .def_536)))
(let ((.def_538 (or .def_108 .def_537)))
(let ((.def_630 (and .def_538 .def_629)))
(let ((.def_40 (and .def_38 .s.3.next)))
(let ((.def_43 (and .def_40 .def_42)))
(let ((.def_530 (and .def_43 .def_100)))
(let ((.def_531 (and .def_48 .def_530)))
(let ((.def_532 (and .def_52 .def_531)))
(let ((.def_533 (and .def_56 .def_532)))
(let ((.def_534 (and .def_60 .def_533)))
(let ((.def_63 (and .def_15 .s.3)))
(let ((.def_64 (and .def_20 .def_63)))
(let ((.def_518 (and .def_23 .def_64)))
(let ((.def_398 (= .inputVar.0 0)))
(let ((.def_528 (and .def_398 .def_518)))
(let ((.def_529 (not .def_528)))
(let ((.def_535 (or .def_529 .def_534)))
(let ((.def_631 (and .def_535 .def_630)))
(let ((.def_316 (and .def_69 .def_101)))
(let ((.def_521 (and .def_42 .def_316)))
(let ((.def_522 (and .s.5.next .def_521)))
(let ((.def_523 (and .def_48 .def_522)))
(let ((.def_524 (and .def_52 .def_523)))
(let ((.def_525 (and .def_56 .def_524)))
(let ((.def_526 (and .def_60 .def_525)))
(let ((.def_399 (not .def_398)))
(let ((.def_519 (and .def_399 .def_518)))
(let ((.def_520 (not .def_519)))
(let ((.def_527 (or .def_520 .def_526)))
(let ((.def_632 (and .def_527 .def_631)))
(let ((.def_295 (and .s.3.next .def_188)))
(let ((.def_511 (and .def_42 .def_295)))
(let ((.def_512 (and .def_100 .def_511)))
(let ((.def_513 (and .def_48 .def_512)))
(let ((.def_514 (and .def_52 .def_513)))
(let ((.def_515 (and .def_56 .def_514)))
(let ((.def_516 (and .def_60 .def_515)))
(let ((.def_28 (and .s.3 .def_27)))
(let ((.def_29 (and .def_20 .def_28)))
(let ((.def_499 (and .def_23 .def_29)))
(let ((.def_509 (and .def_398 .def_499)))
(let ((.def_510 (not .def_509)))
(let ((.def_517 (or .def_510 .def_516)))
(let ((.def_633 (and .def_517 .def_632)))
(let ((.def_502 (and .s.4.next .def_205)))
(let ((.def_503 (and .def_100 .def_502)))
(let ((.def_504 (and .def_48 .def_503)))
(let ((.def_505 (and .def_52 .def_504)))
(let ((.def_506 (and .def_56 .def_505)))
(let ((.def_507 (and .def_60 .def_506)))
(let ((.def_500 (and .def_399 .def_499)))
(let ((.def_501 (not .def_500)))
(let ((.def_508 (or .def_501 .def_507)))
(let ((.def_634 (and .def_508 .def_633)))
(let ((.def_275 (and .s.3.next .def_154)))
(let ((.def_492 (and .def_42 .def_275)))
(let ((.def_493 (and .def_100 .def_492)))
(let ((.def_494 (and .def_48 .def_493)))
(let ((.def_495 (and .def_52 .def_494)))
(let ((.def_496 (and .def_56 .def_495)))
(let ((.def_497 (and .def_60 .def_496)))
(let ((.def_284 (and .s.3 .def_163)))
(let ((.def_479 (and .def_20 .def_284)))
(let ((.def_480 (and .def_23 .def_479)))
(let ((.def_490 (and .def_291 .def_480)))
(let ((.def_491 (not .def_490)))
(let ((.def_498 (or .def_491 .def_497)))
(let ((.def_635 (and .def_498 .def_634)))
(let ((.def_305 (and .s.3.next .def_175)))
(let ((.def_483 (and .def_42 .def_305)))
(let ((.def_484 (and .def_100 .def_483)))
(let ((.def_485 (and .def_48 .def_484)))
(let ((.def_486 (and .def_52 .def_485)))
(let ((.def_487 (and .def_56 .def_486)))
(let ((.def_488 (and .def_60 .def_487)))
(let ((.def_481 (and .def_292 .def_480)))
(let ((.def_482 (not .def_481)))
(let ((.def_489 (or .def_482 .def_488)))
(let ((.def_636 (and .def_489 .def_635)))
(let ((.def_271 (and .s.3 .def_149)))
(let ((.def_475 (and .def_20 .def_271)))
(let ((.def_476 (and .def_23 .def_475)))
(let ((.def_477 (not .def_476)))
(let ((.def_478 (or .def_108 .def_477)))
(let ((.def_637 (and .def_478 .def_636)))
(let ((.def_262 (and .s.3.next .def_140)))
(let ((.def_468 (and .def_42 .def_262)))
(let ((.def_469 (and .def_100 .def_468)))
(let ((.def_464 (* (- 1) main.nonexclusive.next)))
(let ((.def_465 (+ main.nonexclusive .def_464)))
(let ((.def_466 (+ main.exclusive .def_465)))
(let ((.def_467 (= .def_466 0)))
(let ((.def_470 (and .def_467 .def_469)))
(let ((.def_471 (and .def_48 .def_470)))
(let ((.def_472 (and .def_52 .def_471)))
(let ((.def_473 (and .def_56 .def_472)))
(let ((.def_258 (and .s.3 .def_125)))
(let ((.def_461 (and .def_20 .def_258)))
(let ((.def_462 (and .def_23 .def_461)))
(let ((.def_463 (not .def_462)))
(let ((.def_474 (or .def_463 .def_473)))
(let ((.def_638 (and .def_474 .def_637)))
(let ((.def_250 (and .s.3.next .def_116)))
(let ((.def_454 (and .def_42 .def_250)))
(let ((.def_455 (and .def_100 .def_454)))
(let ((.def_453 (= main.exclusive.next 0)))
(let ((.def_456 (and .def_453 .def_455)))
(let ((.def_457 (and .def_48 .def_456)))
(let ((.def_458 (and .def_56 .def_457)))
(let ((.def_459 (and .def_60 .def_458)))
(let ((.def_245 (and .s.3 .def_110)))
(let ((.def_450 (and .def_20 .def_245)))
(let ((.def_451 (and .def_23 .def_450)))
(let ((.def_452 (not .def_451)))
(let ((.def_460 (or .def_452 .def_459)))
(let ((.def_639 (and .def_460 .def_638)))
(let ((.def_443 (and .s.4.next .def_102)))
(let ((.def_444 (and .def_100 .def_443)))
(let ((.def_229 (* (- 1) main.invalid.next)))
(let ((.def_441 (+ main.invalid .def_229)))
(let ((.def_442 (= .def_441 1)))
(let ((.def_445 (and .def_442 .def_444)))
(let ((.def_446 (and .def_48 .def_445)))
(let ((.def_447 (and .def_52 .def_446)))
(let ((.def_448 (and .def_60 .def_447)))
(let ((.def_224 (and .s.3 .def_95)))
(let ((.def_438 (and .def_20 .def_224)))
(let ((.def_439 (and .def_23 .def_438)))
(let ((.def_440 (not .def_439)))
(let ((.def_449 (or .def_440 .def_448)))
(let ((.def_640 (and .def_449 .def_639)))
(let ((.def_430 (* (- 1) main.unowned.next)))
(let ((.def_431 (+ main.unowned .def_430)))
(let ((.def_432 (= .def_431 (- 1))))
(let ((.def_317 (and .s.4.next .def_316)))
(let ((.def_318 (and .def_100 .def_317)))
(let ((.def_433 (and .def_318 .def_432)))
(let ((.def_434 (and .def_52 .def_433)))
(let ((.def_435 (and .def_56 .def_434)))
(let ((.def_436 (and .def_60 .def_435)))
(let ((.def_427 (and .s.4 .def_213)))
(let ((.def_428 (and .def_23 .def_427)))
(let ((.def_429 (not .def_428)))
(let ((.def_437 (or .def_429 .def_436)))
(let ((.def_641 (and .def_437 .def_640)))
(let ((.def_418 (and .def_18 .s.4)))
(let ((.def_419 (and .def_23 .def_418)))
(let ((.def_420 (not .def_419)))
(let ((.def_426 (or .def_420 .def_425)))
(let ((.def_642 (and .def_426 .def_641)))
(let ((.def_411 (and .s.4.next .def_189)))
(let ((.def_412 (and .def_100 .def_411)))
(let ((.def_413 (and .def_48 .def_412)))
(let ((.def_414 (and .def_52 .def_413)))
(let ((.def_415 (and .def_56 .def_414)))
(let ((.def_416 (and .def_60 .def_415)))
(let ((.def_395 (and .s.4 .def_184)))
(let ((.def_396 (and .def_23 .def_395)))
(let ((.def_409 (and .def_396 .def_398)))
(let ((.def_410 (not .def_409)))
(let ((.def_417 (or .def_410 .def_416)))
(let ((.def_643 (and .def_417 .def_642)))
(let ((.def_402 (and .def_40 .s.4.next)))
(let ((.def_403 (and .def_100 .def_402)))
(let ((.def_404 (and .def_48 .def_403)))
(let ((.def_405 (and .def_52 .def_404)))
(let ((.def_406 (and .def_56 .def_405)))
(let ((.def_407 (and .def_60 .def_406)))
(let ((.def_400 (and .def_396 .def_399)))
(let ((.def_401 (not .def_400)))
(let ((.def_408 (or .def_401 .def_407)))
(let ((.def_644 (and .def_408 .def_643)))
(let ((.def_388 (and .s.4.next .def_155)))
(let ((.def_389 (and .def_100 .def_388)))
(let ((.def_390 (and .def_48 .def_389)))
(let ((.def_391 (and .def_52 .def_390)))
(let ((.def_392 (and .def_56 .def_391)))
(let ((.def_393 (and .def_60 .def_392)))
(let ((.def_374 (+ main.unowned main.nonexclusive)))
(let ((.def_375 (<= 1 .def_374)))
(let ((.def_372 (and .s.4 .def_164)))
(let ((.def_373 (and .def_23 .def_372)))
(let ((.def_386 (and .def_373 .def_375)))
(let ((.def_387 (not .def_386)))
(let ((.def_394 (or .def_387 .def_393)))
(let ((.def_645 (and .def_394 .def_644)))
(let ((.def_379 (and .s.4.next .def_176)))
(let ((.def_380 (and .def_100 .def_379)))
(let ((.def_381 (and .def_48 .def_380)))
(let ((.def_382 (and .def_52 .def_381)))
(let ((.def_383 (and .def_56 .def_382)))
(let ((.def_384 (and .def_60 .def_383)))
(let ((.def_376 (not .def_375)))
(let ((.def_377 (and .def_373 .def_376)))
(let ((.def_378 (not .def_377)))
(let ((.def_385 (or .def_378 .def_384)))
(let ((.def_646 (and .def_385 .def_645)))
(let ((.def_368 (and .s.4 .def_150)))
(let ((.def_369 (and .def_23 .def_368)))
(let ((.def_370 (not .def_369)))
(let ((.def_371 (or .def_108 .def_370)))
(let ((.def_647 (and .def_371 .def_646)))
(let ((.def_361 (and .s.4.next .def_141)))
(let ((.def_362 (and .def_100 .def_361)))
(let ((.def_234 (+ .def_229 main.nonexclusive)))
(let ((.def_235 (+ main.invalid .def_234)))
(let ((.def_359 (+ main.unowned .def_235)))
(let ((.def_360 (= .def_359 1)))
(let ((.def_363 (and .def_360 .def_362)))
(let ((.def_364 (and .def_48 .def_363)))
(let ((.def_365 (and .def_52 .def_364)))
(let ((.def_366 (and .def_60 .def_365)))
(let ((.def_355 (and .s.4 .def_126)))
(let ((.def_356 (and .def_23 .def_355)))
(let ((.def_357 (not .def_356)))
(let ((.def_367 (or .def_357 .def_366)))
(let ((.def_648 (and .def_367 .def_647)))
(let ((.def_348 (and .s.4.next .def_117)))
(let ((.def_349 (and .def_100 .def_348)))
(let ((.def_345 (* (- 1) main.exclusive.next)))
(let ((.def_346 (+ main.exclusive .def_345)))
(let ((.def_347 (= .def_346 (- 1))))
(let ((.def_350 (and .def_347 .def_349)))
(let ((.def_351 (and .def_48 .def_350)))
(let ((.def_352 (and .def_56 .def_351)))
(let ((.def_353 (and .def_60 .def_352)))
(let ((.def_342 (and .s.4 .def_111)))
(let ((.def_343 (and .def_23 .def_342)))
(let ((.def_344 (not .def_343)))
(let ((.def_354 (or .def_344 .def_353)))
(let ((.def_649 (and .def_354 .def_648)))
(let ((.def_335 (and .s.4.next .def_86)))
(let ((.def_336 (and .def_100 .def_335)))
(let ((.def_278 (= main.unowned.next 0)))
(let ((.def_337 (and .def_278 .def_336)))
(let ((.def_338 (and .def_52 .def_337)))
(let ((.def_339 (and .def_56 .def_338)))
(let ((.def_340 (and .def_60 .def_339)))
(let ((.def_332 (and .s.4 .def_96)))
(let ((.def_333 (and .def_23 .def_332)))
(let ((.def_334 (not .def_333)))
(let ((.def_341 (or .def_334 .def_340)))
(let ((.def_650 (and .def_341 .def_649)))
(let ((.def_265 (= main.nonexclusive.next 0)))
(let ((.def_217 (and .s.4.next .def_70)))
(let ((.def_218 (and .def_100 .def_217)))
(let ((.def_327 (and .def_218 .def_265)))
(let ((.def_328 (and .def_48 .def_327)))
(let ((.def_329 (and .def_52 .def_328)))
(let ((.def_330 (and .def_56 .def_329)))
(let ((.def_324 (and .s.4 .def_80)))
(let ((.def_325 (and .def_23 .def_324)))
(let ((.def_326 (not .def_325)))
(let ((.def_331 (or .def_326 .def_330)))
(let ((.def_651 (and .def_331 .def_650)))
(let ((.def_319 (and .def_48 .def_318)))
(let ((.def_320 (and .def_52 .def_319)))
(let ((.def_321 (and .def_56 .def_320)))
(let ((.def_322 (and .def_60 .def_321)))
(let ((.def_313 (and .s.4 .def_63)))
(let ((.def_314 (and .def_23 .def_313)))
(let ((.def_315 (not .def_314)))
(let ((.def_323 (or .def_315 .def_322)))
(let ((.def_652 (and .def_323 .def_651)))
(let ((.def_306 (and .s.4.next .def_305)))
(let ((.def_307 (and .def_100 .def_306)))
(let ((.def_308 (and .def_48 .def_307)))
(let ((.def_309 (and .def_52 .def_308)))
(let ((.def_310 (and .def_56 .def_309)))
(let ((.def_311 (and .def_60 .def_310)))
(let ((.def_289 (and .s.4 .def_28)))
(let ((.def_290 (and .def_23 .def_289)))
(let ((.def_303 (and .def_290 .def_291)))
(let ((.def_304 (not .def_303)))
(let ((.def_312 (or .def_304 .def_311)))
(let ((.def_653 (and .def_312 .def_652)))
(let ((.def_296 (and .s.4.next .def_295)))
(let ((.def_297 (and .def_100 .def_296)))
(let ((.def_298 (and .def_48 .def_297)))
(let ((.def_299 (and .def_52 .def_298)))
(let ((.def_300 (and .def_56 .def_299)))
(let ((.def_301 (and .def_60 .def_300)))
(let ((.def_293 (and .def_290 .def_292)))
(let ((.def_294 (not .def_293)))
(let ((.def_302 (or .def_294 .def_301)))
(let ((.def_654 (and .def_302 .def_653)))
(let ((.def_285 (and .s.4 .def_284)))
(let ((.def_286 (and .def_23 .def_285)))
(let ((.def_287 (not .def_286)))
(let ((.def_288 (or .def_108 .def_287)))
(let ((.def_655 (and .def_288 .def_654)))
(let ((.def_276 (and .s.4.next .def_275)))
(let ((.def_277 (and .def_100 .def_276)))
(let ((.def_279 (and .def_277 .def_278)))
(let ((.def_280 (and .def_52 .def_279)))
(let ((.def_281 (and .def_56 .def_280)))
(let ((.def_282 (and .def_60 .def_281)))
(let ((.def_272 (and .s.4 .def_271)))
(let ((.def_273 (and .def_23 .def_272)))
(let ((.def_274 (not .def_273)))
(let ((.def_283 (or .def_274 .def_282)))
(let ((.def_656 (and .def_283 .def_655)))
(let ((.def_263 (and .s.4.next .def_262)))
(let ((.def_264 (and .def_100 .def_263)))
(let ((.def_266 (and .def_264 .def_265)))
(let ((.def_267 (and .def_48 .def_266)))
(let ((.def_268 (and .def_52 .def_267)))
(let ((.def_269 (and .def_56 .def_268)))
(let ((.def_259 (and .s.4 .def_258)))
(let ((.def_260 (and .def_23 .def_259)))
(let ((.def_261 (not .def_260)))
(let ((.def_270 (or .def_261 .def_269)))
(let ((.def_657 (and .def_270 .def_656)))
(let ((.def_251 (and .s.4.next .def_250)))
(let ((.def_252 (and .def_100 .def_251)))
(let ((.def_249 (= main.exclusive.next 1)))
(let ((.def_253 (and .def_249 .def_252)))
(let ((.def_254 (and .def_48 .def_253)))
(let ((.def_255 (and .def_56 .def_254)))
(let ((.def_256 (and .def_60 .def_255)))
(let ((.def_246 (and .s.4 .def_245)))
(let ((.def_247 (and .def_23 .def_246)))
(let ((.def_248 (not .def_247)))
(let ((.def_257 (or .def_248 .def_256)))
(let ((.def_658 (and .def_257 .def_657)))
(let ((.def_239 (and .s.5.next .def_103)))
(let ((.def_236 (+ main.exclusive .def_235)))
(let ((.def_237 (+ main.unowned .def_236)))
(let ((.def_238 (= .def_237 1)))
(let ((.def_240 (and .def_238 .def_239)))
(let ((.def_241 (and .def_48 .def_240)))
(let ((.def_242 (and .def_52 .def_241)))
(let ((.def_243 (and .def_60 .def_242)))
(let ((.def_225 (and .s.4 .def_224)))
(let ((.def_226 (and .def_23 .def_225)))
(let ((.def_227 (not .def_226)))
(let ((.def_244 (or .def_227 .def_243)))
(let ((.def_659 (and .def_244 .def_658)))
(let ((.def_219 (and .def_48 .def_218)))
(let ((.def_220 (and .def_52 .def_219)))
(let ((.def_221 (and .def_56 .def_220)))
(let ((.def_222 (and .def_60 .def_221)))
(let ((.def_215 (and .s.5 .def_214)))
(let ((.def_216 (not .def_215)))
(let ((.def_223 (or .def_216 .def_222)))
(let ((.def_660 (and .def_223 .def_659)))
(let ((.def_207 (and .s.5.next .def_206)))
(let ((.def_208 (and .def_48 .def_207)))
(let ((.def_209 (and .def_52 .def_208)))
(let ((.def_210 (and .def_56 .def_209)))
(let ((.def_211 (and .def_60 .def_210)))
(let ((.def_198 (<= 0 main.exclusive)))
(let ((.def_197 (and .def_21 .s.5)))
(let ((.def_203 (and .def_197 .def_198)))
(let ((.def_204 (not .def_203)))
(let ((.def_212 (or .def_204 .def_211)))
(let ((.def_661 (and .def_212 .def_660)))
(let ((.def_199 (not .def_198)))
(let ((.def_200 (and .def_197 .def_199)))
(let ((.def_201 (not .def_200)))
(let ((.def_45 (and .def_43 .s.5.next)))
(let ((.def_49 (and .def_45 .def_48)))
(let ((.def_53 (and .def_49 .def_52)))
(let ((.def_57 (and .def_53 .def_56)))
(let ((.def_61 (and .def_57 .def_60)))
(let ((.def_202 (or .def_61 .def_201)))
(let ((.def_662 (and .def_202 .def_661)))
(let ((.def_191 (and .s.5.next .def_190)))
(let ((.def_192 (and .def_48 .def_191)))
(let ((.def_193 (and .def_52 .def_192)))
(let ((.def_194 (and .def_56 .def_193)))
(let ((.def_195 (and .def_60 .def_194)))
(let ((.def_186 (and .s.5 .def_185)))
(let ((.def_187 (not .def_186)))
(let ((.def_196 (or .def_187 .def_195)))
(let ((.def_663 (and .def_196 .def_662)))
(let ((.def_178 (and .s.5.next .def_177)))
(let ((.def_179 (and .def_48 .def_178)))
(let ((.def_180 (and .def_52 .def_179)))
(let ((.def_181 (and .def_56 .def_180)))
(let ((.def_182 (and .def_60 .def_181)))
(let ((.def_168 (<= 0 main.unowned)))
(let ((.def_166 (and .s.5 .def_165)))
(let ((.def_173 (and .def_166 .def_168)))
(let ((.def_174 (not .def_173)))
(let ((.def_183 (or .def_174 .def_182)))
(let ((.def_664 (and .def_183 .def_663)))
(let ((.def_169 (not .def_168)))
(let ((.def_170 (and .def_166 .def_169)))
(let ((.def_171 (not .def_170)))
(let ((.def_72 (and .s.5.next .def_71)))
(let ((.def_73 (and .def_48 .def_72)))
(let ((.def_74 (and .def_52 .def_73)))
(let ((.def_75 (and .def_56 .def_74)))
(let ((.def_76 (and .def_60 .def_75)))
(let ((.def_172 (or .def_76 .def_171)))
(let ((.def_665 (and .def_172 .def_664)))
(let ((.def_157 (and .s.5.next .def_156)))
(let ((.def_158 (and .def_48 .def_157)))
(let ((.def_159 (and .def_52 .def_158)))
(let ((.def_160 (and .def_56 .def_159)))
(let ((.def_161 (and .def_60 .def_160)))
(let ((.def_152 (and .s.5 .def_151)))
(let ((.def_153 (not .def_152)))
(let ((.def_162 (or .def_153 .def_161)))
(let ((.def_666 (and .def_162 .def_665)))
(let ((.def_143 (and .s.5.next .def_142)))
(let ((.def_144 (and .def_48 .def_143)))
(let ((.def_145 (and .def_52 .def_144)))
(let ((.def_146 (and .def_56 .def_145)))
(let ((.def_147 (and .def_60 .def_146)))
(let ((.def_129 (+ main.invalid main.nonexclusive)))
(let ((.def_130 (+ main.exclusive .def_129)))
(let ((.def_131 (+ main.unowned .def_130)))
(let ((.def_133 (<= 1 .def_131)))
(let ((.def_128 (and .s.5 .def_127)))
(let ((.def_138 (and .def_128 .def_133)))
(let ((.def_139 (not .def_138)))
(let ((.def_148 (or .def_139 .def_147)))
(let ((.def_667 (and .def_148 .def_666)))
(let ((.def_134 (not .def_133)))
(let ((.def_135 (and .def_128 .def_134)))
(let ((.def_136 (not .def_135)))
(let ((.def_88 (and .s.5.next .def_87)))
(let ((.def_89 (and .def_48 .def_88)))
(let ((.def_90 (and .def_52 .def_89)))
(let ((.def_91 (and .def_56 .def_90)))
(let ((.def_92 (and .def_60 .def_91)))
(let ((.def_137 (or .def_92 .def_136)))
(let ((.def_668 (and .def_137 .def_667)))
(let ((.def_119 (and .s.5.next .def_118)))
(let ((.def_120 (and .def_48 .def_119)))
(let ((.def_121 (and .def_52 .def_120)))
(let ((.def_122 (and .def_56 .def_121)))
(let ((.def_123 (and .def_60 .def_122)))
(let ((.def_113 (and .s.5 .def_112)))
(let ((.def_114 (not .def_113)))
(let ((.def_124 (or .def_114 .def_123)))
(let ((.def_669 (and .def_124 .def_668)))
(let ((.def_98 (and .s.5 .def_97)))
(let ((.def_99 (not .def_98)))
(let ((.def_109 (or .def_99 .def_108)))
(let ((.def_670 (and .def_109 .def_669)))
(let ((.def_82 (and .s.5 .def_81)))
(let ((.def_83 (not .def_82)))
(let ((.def_93 (or .def_83 .def_92)))
(let ((.def_671 (and .def_93 .def_670)))
(let ((.def_65 (and .s.5 .def_64)))
(let ((.def_66 (not .def_65)))
(let ((.def_77 (or .def_66 .def_76)))
(let ((.def_672 (and .def_77 .def_671)))
(let ((.def_30 (and .s.5 .def_29)))
(let ((.def_31 (not .def_30)))
(let ((.def_62 (or .def_31 .def_61)))
(let ((.def_673 (and .def_62 .def_672)))
.def_673))))))))))))))))))))))))))))))))))))))))))))))))))))))))))))))))))))))))))))))))))))))))))))))))))))))))))))))))))))))))))))))))))))))))))))))))))))))))))))))))))))))))))))))))))))))))))))))))))))))))))))))))))))))))))))))))))))))))))))))))))))))))))))))))))))))))))))))))))))))))))))))))))))))))))))))))))))))))))))))))))))))))))))))))))))))))))))))))))))))))))))))))))))))))))))))))))))))))))))))))))))))))))))))))))))))))))))))))))))))))))))))))))))))))))))))))))))))))))))))))))))))))))))))))))))))))))))))))))))))))))))))))))))))))))))))))))))))))))))))))))))))))))))))))))))))))))))))))))))))))))))))))))))))))))))))))))))))))))))) (state |.s.1.next| |.s.0.next| |.s.2.next| |.s.3.next| |.s.4.next| |.s.5.next| |main.unowned.next| |main.exclusive.next| |main.invalid.next| |main.nonexclusive.next|))))
(assert (forall ((|.s.1| Bool) (|.s.0| Bool) (|.s.2| Bool) (|.s.3.next| Bool) (|.s.1.next| Bool) (|.s.0.next| Bool) (|.s.2.next| Bool) (|.s.4.next| Bool) (|.s.5.next| Bool) (|main.unowned.next| Int) (|main.unowned| Int) (|main.exclusive.next| Int) (|main.exclusive| Int) (|main.invalid.next| Int) (|main.invalid| Int) (|main.nonexclusive.next| Int) (|main.nonexclusive| Int) (|.inputVar.0| Int) (|.s.4| Bool) (|.s.5| Bool) (|.s.3| Bool)) (=> (state |.s.1| |.s.0| |.s.2| |.s.3| |.s.4| |.s.5| |main.unowned| |main.exclusive| |main.invalid| |main.nonexclusive|) (let ((.def_25 (not .s.0)))
(let ((.def_10 (not .s.1)))
(let ((.def_78 (and .def_10 .def_25)))
(let ((.def_14 (not .s.2)))
(let ((.def_79 (and .def_14 .def_78)))
(let ((.def_80 (and .s.3 .def_79)))
(let ((.def_20 (not .s.4)))
(let ((.def_81 (and .def_20 .def_80)))
(let ((.def_82 (and .s.5 .def_81)))
(let ((.def_83 (not .def_82)))
(let ((.def_12 (and .def_10 .s.0)))
(let ((.def_15 (and .def_12 .def_14)))
(let ((.def_63 (and .def_15 .s.3)))
(let ((.def_64 (and .def_20 .def_63)))
(let ((.def_65 (and .s.5 .def_64)))
(let ((.def_66 (not .def_65)))
(let ((.def_674 (and .def_66 .def_83)))
(let ((.def_26 (and .s.1 .def_25)))
(let ((.def_27 (and .def_14 .def_26)))
(let ((.def_28 (and .s.3 .def_27)))
(let ((.def_29 (and .def_20 .def_28)))
(let ((.def_30 (and .s.5 .def_29)))
(let ((.def_31 (not .def_30)))
(let ((.def_675 (and .def_31 .def_674)))
.def_675)))))))))))))))))))))))))))
(check-sat)
